# 1176
param n := 25;
param s := 1;
set E :=  (0,14) (0,16) (1,16) (2,6) (2,16) (2,17) (2,19) (3,6) (3,7) (3,8) (3,12) (4,13) (5,17) (7,22) (7,24) (8,9) (8,17) (10,20) (10,21) (11,13) (13,14) (13,17) (13,19) (14,15) (15,24) (18,20) (18,24) (19,22) (20,23);
